20
5
2005002
0
0
68 63 60 66 30 
1
0
64 60 50 64 28 
2
0
67 63 53 64 27 
3
0
66 62 59 68 22 
4
0
69 68 56 64 22 
5
0
68 69 50 62 24 
6
0
63 65 58 69 31 
7
0
69 65 56 70 24 
8
0
63 60 51 68 30 
9
0
67 66 52 70 32 
10
0
72 68 58 68 29 
11
0
64 64 49 70 30 
12
0
64 67 52 69 27 
13
0
70 62 53 67 29 
14
0
72 66 56 68 22 
15
0
72 65 50 69 27 
16
0
72 70 56 65 24 
17
0
64 68 52 71 26 
18
0
71 64 54 70 26 
19
0
64 63 54 64 31 
